NAME : portcgen-24-23
COMMENT : portcgen N=24, seed=23
TYPE : TSP
DIMENSION : 24
EDGE_WEIGHT_TYPE : EUC_2D
NODE_COORD_SECTION
1 127218 -29717
2 52793 46488
3 -73281 79764
4 213356 11571
5 337063 47230
6 244066 272898
7 427432 -232658
8 -107779 -30487
9 351773 -92998
10 72924 -148905
11 76964 11740
12 79556 -3196
13 -294906 -246567
14 -141070 -81486
15 -20972 -93082
16 6763 -232157
17 -272075 -128191
18 -167775 -48863
19 -105782 113841
20 -180694 42407
21 198572 154656
22 162344 -138309
23 -58026 -118203
24 -85270 -90577
